\ This file has been generated by DOcplex
\ ENCODING=ISO-8859-1
\Problem name: relay4 problem

Maximize
 obj: [ - 10.763392214960 a0_u0*a1_u0_x3 - 111.506594741694 a0_u0*a1_u1_x3
      - 13.506594741694 a0_u0*a1_u2_x3 - 108 a0_u1*a1_u0_x3 - 108 a0_u1*a1_u1_x3
      - 108 a0_u1*a1_u2_x3 - 10 a0_u2*a1_u0_x3 - 108 a0_u2*a1_u1_x3
      - 10 a0_u2*a1_u2_x3 ]/2
Subject To
 c1: 160.291304290452 aj_u0_x0 + 127.500000000000 aj_u1_x0
     + 186.500000000000 aj_u2_x0 + 161.500000000000 aj_u3_x0
     + 101.500000000000 aj_u4_x0 + 126.500000000000 aj_u5_x0
     + 163.500000000000 aj_u6_x0 + 186.500000000000 aj_u7_x0
     + 154.500000000000 aj_u8_x0 - 160.291304290452 a0_u0
     - 161.500000000000 a0_u1 - 163.500000000000 a0_u2 >= 0
 c2: 160.291304290452 aj_u0_x0 + 127.500000000000 aj_u1_x0
     + 186.500000000000 aj_u2_x0 + 161.500000000000 aj_u3_x0
     + 101.500000000000 aj_u4_x0 + 126.500000000000 aj_u5_x0
     + 163.500000000000 aj_u6_x0 + 186.500000000000 aj_u7_x0
     + 154.500000000000 aj_u8_x0 - 127.500000000000 a0_u0
     - 101.500000000000 a0_u1 - 186.500000000000 a0_u2 >= 0
 c3: 160.291304290452 aj_u0_x0 + 127.500000000000 aj_u1_x0
     + 186.500000000000 aj_u2_x0 + 161.500000000000 aj_u3_x0
     + 101.500000000000 aj_u4_x0 + 126.500000000000 aj_u5_x0
     + 163.500000000000 aj_u6_x0 + 186.500000000000 aj_u7_x0
     + 154.500000000000 aj_u8_x0 - 186.500000000000 a0_u0
     - 126.500000000000 a0_u1 - 154.500000000000 a0_u2 >= 0
 c4: - 46.654843609894 aj_u0_x1 + 65.500000000000 aj_u1_x1
     + 47.500000000000 aj_u2_x1 + 45.500000000000 aj_u3_x1
     - 6.500000000000 aj_u4_x1 + 54.500000000000 aj_u5_x1
     + 59.500000000000 aj_u6_x1 + 59.500000000000 aj_u7_x1
     + 65.500000000000 aj_u8_x1 + 46.654843609894 a0_u0 - 45.500000000000 a0_u1
     - 59.500000000000 a0_u2 >= 0
 c5: - 46.654843609894 aj_u0_x1 + 65.500000000000 aj_u1_x1
     + 47.500000000000 aj_u2_x1 + 45.500000000000 aj_u3_x1
     - 6.500000000000 aj_u4_x1 + 54.500000000000 aj_u5_x1
     + 59.500000000000 aj_u6_x1 + 59.500000000000 aj_u7_x1
     + 65.500000000000 aj_u8_x1 - 65.500000000000 a0_u0 + 6.500000000000 a0_u1
     - 59.500000000000 a0_u2 >= 0
 c6: - 46.654843609894 aj_u0_x1 + 65.500000000000 aj_u1_x1
     + 47.500000000000 aj_u2_x1 + 45.500000000000 aj_u3_x1
     - 6.500000000000 aj_u4_x1 + 54.500000000000 aj_u5_x1
     + 59.500000000000 aj_u6_x1 + 59.500000000000 aj_u7_x1
     + 65.500000000000 aj_u8_x1 - 47.500000000000 a0_u0 - 54.500000000000 a0_u1
     - 65.500000000000 a0_u2 >= 0
 c7: 71.446721632354 aj_u0_x2 + 86.761893190658 aj_u1_x2
     + 144.761893190658 aj_u2_x2 + 167 aj_u3_x2 + 103 aj_u4_x2 + 169 aj_u5_x2
     + 183 aj_u6_x2 + 145 aj_u7_x2 + 127.000000000000 aj_u8_x2
     - 71.446721632354 a0_u0 - 167 a0_u1 - 183 a0_u2 >= 0
 c8: 71.446721632354 aj_u0_x2 + 86.761893190658 aj_u1_x2
     + 144.761893190658 aj_u2_x2 + 167 aj_u3_x2 + 103 aj_u4_x2 + 169 aj_u5_x2
     + 183 aj_u6_x2 + 145 aj_u7_x2 + 127.000000000000 aj_u8_x2
     - 86.761893190658 a0_u0 - 103 a0_u1 - 145 a0_u2 >= 0
 c9: 71.446721632354 aj_u0_x2 + 86.761893190658 aj_u1_x2
     + 144.761893190658 aj_u2_x2 + 167 aj_u3_x2 + 103 aj_u4_x2 + 169 aj_u5_x2
     + 183 aj_u6_x2 + 145 aj_u7_x2 + 127.000000000000 aj_u8_x2
     - 144.761893190658 a0_u0 - 169 a0_u1 - 127.000000000000 a0_u2 >= 0
 c10: 199.079248230316 aj_u0_x3 + 105.558273977413 aj_u1_x3
      + 182.558273977413 aj_u2_x3 + 138.750000000000 aj_u3_x3
      + 111.750000000000 aj_u4_x3 + 87.750000000000 aj_u5_x3
      + 167.750000000000 aj_u6_x3 + 112.750000000000 aj_u7_x3
      + 84.750000000000 aj_u8_x3 - 199.079248230316 a0_u0
      - 138.750000000000 a0_u1 - 167.750000000000 a0_u2 >= 0
 c11: 199.079248230316 aj_u0_x3 + 105.558273977413 aj_u1_x3
      + 182.558273977413 aj_u2_x3 + 138.750000000000 aj_u3_x3
      + 111.750000000000 aj_u4_x3 + 87.750000000000 aj_u5_x3
      + 167.750000000000 aj_u6_x3 + 112.750000000000 aj_u7_x3
      + 84.750000000000 aj_u8_x3 - 105.558273977413 a0_u0
      - 111.750000000000 a0_u1 - 112.750000000000 a0_u2 >= 0
 c12: 199.079248230316 aj_u0_x3 + 105.558273977413 aj_u1_x3
      + 182.558273977413 aj_u2_x3 + 138.750000000000 aj_u3_x3
      + 111.750000000000 aj_u4_x3 + 87.750000000000 aj_u5_x3
      + 167.750000000000 aj_u6_x3 + 112.750000000000 aj_u7_x3
      + 84.750000000000 aj_u8_x3 - 182.558273977413 a0_u0
      - 87.750000000000 a0_u1 - 84.750000000000 a0_u2 >= 0
 c13: a0_u0 + a0_u1 + a0_u2 = 1
 c14: a1_u0_x0 + a1_u1_x0 + a1_u2_x0 = 1
 c15: aj_u0_x0 + aj_u1_x0 + aj_u2_x0 + aj_u3_x0 + aj_u4_x0 + aj_u5_x0 + aj_u6_x0
      + aj_u7_x0 + aj_u8_x0 = 1
 c16: a1_u0_x1 + a1_u1_x1 + a1_u2_x1 = 1
 c17: aj_u0_x1 + aj_u1_x1 + aj_u2_x1 + aj_u3_x1 + aj_u4_x1 + aj_u5_x1 + aj_u6_x1
      + aj_u7_x1 + aj_u8_x1 = 1
 c18: a1_u0_x2 + a1_u1_x2 + a1_u2_x2 = 1
 c19: aj_u0_x2 + aj_u1_x2 + aj_u2_x2 + aj_u3_x2 + aj_u4_x2 + aj_u5_x2 + aj_u6_x2
      + aj_u7_x2 + aj_u8_x2 = 1
 c20: a1_u0_x3 + a1_u1_x3 + a1_u2_x3 = 1
 c21: aj_u0_x3 + aj_u1_x3 + aj_u2_x3 + aj_u3_x3 + aj_u4_x3 + aj_u5_x3 + aj_u6_x3
      + aj_u7_x3 + aj_u8_x3 = 1
 c22: aj_u0_x0 + aj_u1_x0 + aj_u2_x0 - a0_u0 = 0
 c23: aj_u3_x0 + aj_u4_x0 + aj_u5_x0 - a0_u1 = 0
 c24: aj_u6_x0 + aj_u7_x0 + aj_u8_x0 - a0_u2 = 0
 c25: aj_u0_x1 + aj_u1_x1 + aj_u2_x1 - a0_u0 = 0
 c26: aj_u3_x1 + aj_u4_x1 + aj_u5_x1 - a0_u1 = 0
 c27: aj_u6_x1 + aj_u7_x1 + aj_u8_x1 - a0_u2 = 0
 c28: aj_u0_x2 + aj_u1_x2 + aj_u2_x2 - a0_u0 = 0
 c29: aj_u3_x2 + aj_u4_x2 + aj_u5_x2 - a0_u1 = 0
 c30: aj_u6_x2 + aj_u7_x2 + aj_u8_x2 - a0_u2 = 0
 c31: aj_u0_x3 + aj_u1_x3 + aj_u2_x3 - a0_u0 = 0
 c32: aj_u3_x3 + aj_u4_x3 + aj_u5_x3 - a0_u1 = 0
 c33: aj_u6_x3 + aj_u7_x3 + aj_u8_x3 - a0_u2 = 0
 c34: aj_u0_x0 + aj_u3_x0 + aj_u6_x0 - a1_u0_x0 = 0
 c35: aj_u1_x0 + aj_u4_x0 + aj_u7_x0 - a1_u1_x0 = 0
 c36: aj_u2_x0 + aj_u5_x0 + aj_u8_x0 - a1_u2_x0 = 0
 c37: aj_u0_x1 + aj_u3_x1 + aj_u6_x1 - a1_u0_x1 = 0
 c38: aj_u1_x1 + aj_u4_x1 + aj_u7_x1 - a1_u1_x1 = 0
 c39: aj_u2_x1 + aj_u5_x1 + aj_u8_x1 - a1_u2_x1 = 0
 c40: aj_u0_x2 + aj_u3_x2 + aj_u6_x2 - a1_u0_x2 = 0
 c41: aj_u1_x2 + aj_u4_x2 + aj_u7_x2 - a1_u1_x2 = 0
 c42: aj_u2_x2 + aj_u5_x2 + aj_u8_x2 - a1_u2_x2 = 0
 c43: aj_u0_x3 + aj_u3_x3 + aj_u6_x3 - a1_u0_x3 = 0
 c44: aj_u1_x3 + aj_u4_x3 + aj_u7_x3 - a1_u1_x3 = 0
 c45: aj_u2_x3 + aj_u5_x3 + aj_u8_x3 - a1_u2_x3 = 0

Bounds
       a0_u0 <= 1
       a0_u1 <= 1
       a0_u2 <= 1
 0 <= a1_u0_x0 <= 1
 0 <= a1_u1_x0 <= 1
 0 <= a1_u2_x0 <= 1
       aj_u0_x0 <= 1
       aj_u1_x0 <= 1
       aj_u2_x0 <= 1
       aj_u3_x0 <= 1
       aj_u4_x0 <= 1
       aj_u5_x0 <= 1
       aj_u6_x0 <= 1
       aj_u7_x0 <= 1
       aj_u8_x0 <= 1
 0 <= a1_u0_x1 <= 1
 0 <= a1_u1_x1 <= 1
 0 <= a1_u2_x1 <= 1
       aj_u0_x1 <= 1
       aj_u1_x1 <= 1
       aj_u2_x1 <= 1
       aj_u3_x1 <= 1
       aj_u4_x1 <= 1
       aj_u5_x1 <= 1
       aj_u6_x1 <= 1
       aj_u7_x1 <= 1
       aj_u8_x1 <= 1
 0 <= a1_u0_x2 <= 1
 0 <= a1_u1_x2 <= 1
 0 <= a1_u2_x2 <= 1
       aj_u0_x2 <= 1
       aj_u1_x2 <= 1
       aj_u2_x2 <= 1
       aj_u3_x2 <= 1
       aj_u4_x2 <= 1
       aj_u5_x2 <= 1
       aj_u6_x2 <= 1
       aj_u7_x2 <= 1
       aj_u8_x2 <= 1
 0 <= a1_u0_x3 <= 1
 0 <= a1_u1_x3 <= 1
 0 <= a1_u2_x3 <= 1
       aj_u0_x3 <= 1
       aj_u1_x3 <= 1
       aj_u2_x3 <= 1
       aj_u3_x3 <= 1
       aj_u4_x3 <= 1
       aj_u5_x3 <= 1
       aj_u6_x3 <= 1
       aj_u7_x3 <= 1
       aj_u8_x3 <= 1

Binaries
 a1_u0_x0 a1_u1_x0 a1_u2_x0 a1_u0_x1 a1_u1_x1 a1_u2_x1 a1_u0_x2 a1_u1_x2
 a1_u2_x2 a1_u0_x3 a1_u1_x3 a1_u2_x3
End
